k = 36;
b = 18;
AtomicConstraints =  [|
1, 10|
	1, 29|
	2, 10|
	2, 29|
	3, 1|
	3, 2|
	3, 9|
	3, 10|
	3, 31|
	3, 30|
	3, 33|
	3, 32|
	3, 35|
	3, 36|
	3, 34|
	3, 29|
	4, 1|
	4, 2|
	4, 9|
	4, 10|
	4, 31|
	4, 30|
	4, 33|
	4, 32|
	4, 35|
	4, 36|
	4, 34|
	4, 29|
	5, 1|
	5, 9|
	5, 10|
	5, 31|
	5, 30|
	5, 33|
	5, 32|
	5, 35|
	5, 36|
	5, 34|
	5, 29|
	6, 9|
	6, 10|
	6, 31|
	6, 30|
	6, 33|
	6, 32|
	6, 35|
	6, 36|
	6, 34|
	6, 29|
	7, 9|
	7, 10|
	7, 31|
	7, 30|
	7, 33|
	7, 32|
	7, 35|
	7, 36|
	7, 34|
	7, 29|
	8, 9|
	8, 10|
	8, 31|
	8, 30|
	8, 33|
	8, 32|
	8, 35|
	8, 36|
	8, 34|
	8, 29|
	9, 31|
	9, 30|
	9, 33|
	9, 32|
	24, 10|
	24, 28|
	24, 11|
	24, 12|
	24, 13|
	24, 14|
	24, 15|
	21, 10|
	21, 24|
	21, 22|
	21, 28|
	21, 11|
	21, 12|
	21, 13|
	21, 14|
	21, 15|
	21, 16|
	21, 17|
	21, 18|
	21, 19|
	21, 27|
	21, 20|
	22, 10|
	22, 28|
	22, 11|
	22, 12|
	22, 13|
	22, 14|
	22, 15|
	22, 16|
	22, 17|
	22, 18|
	22, 19|
	22, 27|
	22, 20|
	28, 10|
	28, 11|
	28, 12|
	28, 13|
	11, 10|
	11, 12|
	11, 13|
	12, 10|
	13, 10|
	14, 10|
	14, 15|
	15, 10|
	16, 10|
	16, 17|
	25, 10|
	25, 28|
	25, 11|
	25, 12|
	25, 13|
	17, 10|
	18, 10|
	18, 17|
	19, 10|
	19, 15|
	19, 16|
	19, 17|
	19, 18|
	27, 10|
	27, 15|
	27, 16|
	27, 17|
	27, 18|
	27, 19|
	27, 20|
	20, 10|
	20, 17|
	20, 18|
	26, 10|
	26, 28|
	26, 11|
	26, 12|
	26, 13|
	26, 14|
	26, 25|
	26, 23|
	26, 29|
	23, 10|
	23, 28|
	23, 11|
	23, 12|
	23, 13|
	23, 14|
	35, 29|
	36, 29|
	34, 29|];
DisjunctiveConstraints =  [|4, 2, 4, 20|
	4, 3, 4, 5|
	5, 1, 5, 19|
	5, 4, 5, 6|
	6, 2, 20, 6|
	6, 5, 6, 7|
	7, 1, 19, 7|
	7, 6, 7, 8|
	9, 29, 11, 9|
	24, 33, 24, 15|
	21, 9, 21, 27|
	13, 14, 13, 12|
	16, 35, 16, 17|
	25, 13, 31, 25|
	25, 30, 25, 12|
	26, 14, 32, 26|
	23, 24, 23, 25|
	30, 33, 30, 31|
	33, 32, 33, 30|
	36, 34, 36, 35|];
SoftAtomicConstraints =  [|
2, 1|
3, 4|
4, 5|
5, 6|
6, 7|
7, 8|
13, 12|
14, 13|
16, 14|
17, 15|
18, 16|
20, 19|
24, 23|
23, 25|
19, 28|
10, 29|
33, 30|
30, 31|
35, 32|
32, 33|
36, 35|
34, 36|];
DirectSuccessors =  [16,
17,
18,
35,
36,
34];
